(set-option :print-success false)
(set-option :produce-models true)
(set-logic QF_UFNRA)
(define-sort Dt () Real)
( define-fun T ( ) Real 1.0 )
( define-fun t0 ( ) Real 1 )
( define-fun sqr0 ( ) Real t0 )
( define-fun sqrt0 ( ) Real t0 )
( define-fun y0 ( ) Real t0 )
( define-fun inc0 ( ) Bool true )
( declare-fun t_0 ( ) Real )
( declare-fun t_1 ( ) Real )
( declare-fun t_2 ( ) Real )
( declare-fun t_3 ( ) Real )
( declare-fun t_4 ( ) Real )
( declare-fun t_5 ( ) Real )
( declare-fun t_6 ( ) Real )
( declare-fun t_7 ( ) Real )
( declare-fun t_8 ( ) Real )
( declare-fun t_9 ( ) Real )
( declare-fun sqr_0 ( ) Real )
( declare-fun sqr_1 ( ) Real )
( declare-fun sqr_2 ( ) Real )
( declare-fun sqr_3 ( ) Real )
( declare-fun sqr_4 ( ) Real )
( declare-fun sqr_5 ( ) Real )
( declare-fun sqr_6 ( ) Real )
( declare-fun sqr_7 ( ) Real )
( declare-fun sqr_8 ( ) Real )
( declare-fun sqr_9 ( ) Real )
( declare-fun sqrt_0 ( ) Real )
( declare-fun sqrt_1 ( ) Real )
( declare-fun sqrt_2 ( ) Real )
( declare-fun sqrt_3 ( ) Real )
( declare-fun sqrt_4 ( ) Real )
( declare-fun sqrt_5 ( ) Real )
( declare-fun sqrt_6 ( ) Real )
( declare-fun sqrt_7 ( ) Real )
( declare-fun sqrt_8 ( ) Real )
( declare-fun sqrt_9 ( ) Real )
( declare-fun y_0 ( ) Real )
( declare-fun y_1 ( ) Real )
( declare-fun y_2 ( ) Real )
( declare-fun y_3 ( ) Real )
( declare-fun y_4 ( ) Real )
( declare-fun y_5 ( ) Real )
( declare-fun y_6 ( ) Real )
( declare-fun y_7 ( ) Real )
( declare-fun y_8 ( ) Real )
( declare-fun y_9 ( ) Real )
( declare-fun inc_0 ( ) Bool )
( declare-fun inc_1 ( ) Bool )
( declare-fun inc_2 ( ) Bool )
( declare-fun inc_3 ( ) Bool )
( declare-fun inc_4 ( ) Bool )
( declare-fun inc_5 ( ) Bool )
( declare-fun inc_6 ( ) Bool )
( declare-fun inc_7 ( ) Bool )
( declare-fun inc_8 ( ) Bool )
( declare-fun inc_9 ( ) Bool )
( declare-fun dsqr_0 ( ) Dt )
( declare-fun dsqr_1 ( ) Dt )
( declare-fun dsqr_2 ( ) Dt )
( declare-fun dsqr_3 ( ) Dt )
( declare-fun dsqr_4 ( ) Dt )
( declare-fun dsqr_5 ( ) Dt )
( declare-fun dsqr_6 ( ) Dt )
( declare-fun dsqr_7 ( ) Dt )
( declare-fun dsqr_8 ( ) Dt )
( declare-fun dsqr_9 ( ) Dt )
( declare-fun dsqrt_0 ( ) Dt )
( declare-fun dsqrt_1 ( ) Dt )
( declare-fun dsqrt_2 ( ) Dt )
( declare-fun dsqrt_3 ( ) Dt )
( declare-fun dsqrt_4 ( ) Dt )
( declare-fun dsqrt_5 ( ) Dt )
( declare-fun dsqrt_6 ( ) Dt )
( declare-fun dsqrt_7 ( ) Dt )
( declare-fun dsqrt_8 ( ) Dt )
( declare-fun dsqrt_9 ( ) Dt )
( declare-fun dy_0 ( ) Dt )
( declare-fun dy_1 ( ) Dt )
( declare-fun dy_2 ( ) Dt )
( declare-fun dy_3 ( ) Dt )
( declare-fun dy_4 ( ) Dt )
( declare-fun dy_5 ( ) Dt )
( declare-fun dy_6 ( ) Dt )
( declare-fun dy_7 ( ) Dt )
( declare-fun dy_8 ( ) Dt )
( declare-fun dy_9 ( ) Dt )
( assert ( and ( = t_0 t0 ) ( = sqr_0 sqr0 ) ( = sqrt_0 sqrt0 ) ( = y_0 y0 ) ( = inc_0 inc0 ) ) )
( assert ( and ( = t_1 ( + t_0 T ) ) ( = t_2 ( + t_1 T ) ) ( = t_3 ( + t_2 T ) ) ( = t_4 ( + t_3 T ) ) ( = t_5 ( + t_4 T ) ) ( = t_6 ( + t_5 T ) ) ( = t_7 ( + t_6 T ) ) ( = t_8 ( + t_7 T ) ) ( = t_9 ( + t_8 T ) ) ) )
( declare-fun int-ode_sqr ( Real ) Real )
( define-fun dsqr ( ) Dt 0 )
( declare-fun int-ode_sqrt ( Real ) Real )
( define-fun dsqrt ( ) Dt 0 )
( declare-fun int-ode_y ( Real ) Real )
( define-fun dy_exp_inc ( ) Dt 0 )
( define-fun dy_exp_dec ( ) Dt 1 )
( assert ( and ( = sqr_1 ( int-ode_sqr 0 ) ) ( = sqr_2 ( int-ode_sqr 1 ) ) ( = sqr_3 ( int-ode_sqr 2 ) ) ( = sqr_4 ( int-ode_sqr 3 ) ) ( = sqr_5 ( int-ode_sqr 4 ) ) ( = sqr_6 ( int-ode_sqr 5 ) ) ( = sqr_7 ( int-ode_sqr 6 ) ) ( = sqr_8 ( int-ode_sqr 7 ) ) ( = sqr_9 ( int-ode_sqr 8 ) ) ) )
( assert ( and ( = sqrt_1 ( int-ode_sqrt 0 ) ) ( = sqrt_2 ( int-ode_sqrt 1 ) ) ( = sqrt_3 ( int-ode_sqrt 2 ) ) ( = sqrt_4 ( int-ode_sqrt 3 ) ) ( = sqrt_5 ( int-ode_sqrt 4 ) ) ( = sqrt_6 ( int-ode_sqrt 5 ) ) ( = sqrt_7 ( int-ode_sqrt 6 ) ) ( = sqrt_8 ( int-ode_sqrt 7 ) ) ( = sqrt_9 ( int-ode_sqrt 8 ) ) ) )
( assert ( and ( = y_1 ( int-ode_y 0 ) ) ( = y_2 ( int-ode_y 1 ) ) ( = y_3 ( int-ode_y 2 ) ) ( = y_4 ( int-ode_y 3 ) ) ( = y_5 ( int-ode_y 4 ) ) ( = y_6 ( int-ode_y 5 ) ) ( = y_7 ( int-ode_y 6 ) ) ( = y_8 ( int-ode_y 7 ) ) ( = y_9 ( int-ode_y 8 ) ) ) )
( define-fun connect ( ( dsqr_ Dt ) ( dsqrt_ Dt ) ( dy Dt ) ( inc Bool ) ) Bool ( and ( = dsqr_ dsqr ) ( = dsqrt_ dsqrt ) ( or ( and inc ( = dy dy_exp_inc ) ) ( and ( not inc ) ( = dy dy_exp_dec ) ) ) ) )
( assert ( and ( connect dsqr_0 dsqrt_0 dy_0 inc_0 ) ( connect dsqr_1 dsqrt_1 dy_1 inc_1 ) ( connect dsqr_2 dsqrt_2 dy_2 inc_2 ) ( connect dsqr_3 dsqrt_3 dy_3 inc_3 ) ( connect dsqr_4 dsqrt_4 dy_4 inc_4 ) ( connect dsqr_5 dsqrt_5 dy_5 inc_5 ) ( connect dsqr_6 dsqrt_6 dy_6 inc_6 ) ( connect dsqr_7 dsqrt_7 dy_7 inc_7 ) ( connect dsqr_8 dsqrt_8 dy_8 inc_8 ) ( connect dsqr_9 dsqrt_9 dy_9 inc_9 ) ) )
( define-fun invariant ( ( t Real ) ( sqr Real ) ( sqrt Real ) ( y Real ) ) Bool ( and ( <= y sqr ) ( >= y t ) ) )
( assert ( and ( invariant t_0 sqr_0 sqrt_0 y_0 ) ( invariant t_1 sqr_1 sqrt_1 y_1 ) ( invariant t_2 sqr_2 sqrt_2 y_2 ) ( invariant t_3 sqr_3 sqrt_3 y_3 ) ( invariant t_4 sqr_4 sqrt_4 y_4 ) ( invariant t_5 sqr_5 sqrt_5 y_5 ) ( invariant t_6 sqr_6 sqrt_6 y_6 ) ( invariant t_7 sqr_7 sqrt_7 y_7 ) ( invariant t_8 sqr_8 sqrt_8 y_8 ) ( invariant t_9 sqr_9 sqrt_9 y_9 ) ) )

(check-sat)
(get-value (dsqr_0))
(get-value (sqr_0))
(get-value (t_0))
(get-value (t_1))
(get-value (dsqrt_0))
(get-value (sqrt_0))
(get-value (t_0))
(get-value (t_1))
(get-value (dy_0))
(get-value (y_0))
(get-value (t_0))
(get-value (t_1))
(assert (=> (and 
(= dsqr_0 0.0)
(= sqr_0 1.0)
(= t_0 1.0)
(= t_1 2.0)
) (= (int-ode_sqr 0) 4.000000)
))
(assert (=> (and 
(= dsqrt_0 0.0)
(= sqrt_0 1.0)
(= t_0 1.0)
(= t_1 2.0)
) (= (int-ode_sqrt 0) 1.414214)
))
(assert (=> (and 
(= dy_0 0.0)
(= y_0 1.0)
(= t_0 1.0)
(= t_1 2.0)
) (= (int-ode_y 0) 2.718282)
))
(push 1)
(assert (= dsqr_0 0.0))
(assert (= dsqrt_0 0.0))
(assert (= dy_0 0.0))
(check-sat)
(get-value (dsqr_1))
(get-value (sqr_1))
(get-value (t_1))
(get-value (t_2))
(get-value (dsqrt_1))
(get-value (sqrt_1))
(get-value (t_1))
(get-value (t_2))
(get-value (dy_1))
(get-value (y_1))
(get-value (t_1))
(get-value (t_2))
(assert (=> (and 
(= dsqr_1 0.0)
(= sqr_1 4.0)
(= t_1 2.0)
(= t_2 3.0)
) (= (int-ode_sqr 1) 9.000000)
))
(assert (=> (and 
(= dsqrt_1 0.0)
(= sqrt_1 1.414214)
(= t_1 2.0)
(= t_2 3.0)
) (= (int-ode_sqrt 1) 1.732051)
))
(assert (=> (and 
(= dy_1 1.0)
(= y_1 2.718282)
(= t_1 2.0)
(= t_2 3.0)
) (= (int-ode_y 1) 3.123747)
))
(push 1)
(assert (= dsqr_1 0.0))
(assert (= dsqrt_1 0.0))
(assert (= dy_1 1.0))
(check-sat)
(get-value (dsqr_2))
(get-value (sqr_2))
(get-value (t_2))
(get-value (t_3))
(get-value (dsqrt_2))
(get-value (sqrt_2))
(get-value (t_2))
(get-value (t_3))
(get-value (dy_2))
(get-value (y_2))
(get-value (t_2))
(get-value (t_3))
(assert (=> (and 
(= dsqr_2 0.0)
(= sqr_2 9.0)
(= t_2 3.0)
(= t_3 4.0)
) (= (int-ode_sqr 2) 16.000000)
))
(assert (=> (and 
(= dsqrt_2 0.0)
(= sqrt_2 1.732051)
(= t_2 3.0)
(= t_3 4.0)
) (= (int-ode_sqrt 2) 2.000000)
))
(assert (=> (and 
(= dy_2 0.0)
(= y_2 3.123747)
(= t_2 3.0)
(= t_3 4.0)
) (= (int-ode_y 2) 8.491226)
))
(push 1)
(assert (= dsqr_2 0.0))
(assert (= dsqrt_2 0.0))
(assert (= dy_2 0.0))
(check-sat)
(get-value (dsqr_3))
(get-value (sqr_3))
(get-value (t_3))
(get-value (t_4))
(get-value (dsqrt_3))
(get-value (sqrt_3))
(get-value (t_3))
(get-value (t_4))
(get-value (dy_3))
(get-value (y_3))
(get-value (t_3))
(get-value (t_4))
(assert (=> (and 
(= dsqr_3 0.0)
(= sqr_3 16.0)
(= t_3 4.0)
(= t_4 5.0)
) (= (int-ode_sqr 3) 25.000000)
))
(assert (=> (and 
(= dsqrt_3 0.0)
(= sqrt_3 2.0)
(= t_3 4.0)
(= t_4 5.0)
) (= (int-ode_sqrt 3) 2.236068)
))
(assert (=> (and 
(= dy_3 0.0)
(= y_3 8.491226)
(= t_3 4.0)
(= t_4 5.0)
) (= (int-ode_y 3) 23.081549)
))
(push 1)
(assert (= dsqr_3 0.0))
(assert (= dsqrt_3 0.0))
(assert (= dy_3 0.0))
(check-sat)
(get-value (dsqr_4))
(get-value (sqr_4))
(get-value (t_4))
(get-value (t_5))
(get-value (dsqrt_4))
(get-value (sqrt_4))
(get-value (t_4))
(get-value (t_5))
(get-value (dy_4))
(get-value (y_4))
(get-value (t_4))
(get-value (t_5))
(assert (=> (and 
(= dsqr_4 0.0)
(= sqr_4 25.0)
(= t_4 5.0)
(= t_5 6.0)
) (= (int-ode_sqr 4) 36.000000)
))
(assert (=> (and 
(= dsqrt_4 0.0)
(= sqrt_4 2.236068)
(= t_4 5.0)
(= t_5 6.0)
) (= (int-ode_sqrt 4) 2.449490)
))
(assert (=> (and 
(= dy_4 0.0)
(= y_4 23.081549)
(= t_4 5.0)
(= t_5 6.0)
) (= (int-ode_y 4) 62.742164)
))
(push 1)
(assert (= dsqr_4 0.0))
(assert (= dsqrt_4 0.0))
(assert (= dy_4 0.0))
(check-sat)
(pop 1)
(assert (not (and 
(= dsqr_4 0.0)
(= sqr_4 25.0)
(= t_4 5.0)
(= t_5 6.0)
(= dsqrt_4 0.0)
(= sqrt_4 2.236068)
(= t_4 5.0)
(= t_5 6.0)
(= dy_4 0.0)
(= y_4 23.081549)
(= t_4 5.0)
(= t_5 6.0)
)))
(check-sat)
(get-value (dsqr_4))
(get-value (sqr_4))
(get-value (t_4))
(get-value (t_5))
(get-value (dsqrt_4))
(get-value (sqrt_4))
(get-value (t_4))
(get-value (t_5))
(get-value (dy_4))
(get-value (y_4))
(get-value (t_4))
(get-value (t_5))
(assert (=> (and 
(= dsqr_4 0.0)
(= sqr_4 25.0)
(= t_4 5.0)
(= t_5 6.0)
) (= (int-ode_sqr 4) 36.000000)
))
(assert (=> (and 
(= dsqrt_4 0.0)
(= sqrt_4 2.236068)
(= t_4 5.0)
(= t_5 6.0)
) (= (int-ode_sqrt 4) 2.449490)
))
(assert (=> (and 
(= dy_4 1.0)
(= y_4 23.081549)
(= t_4 5.0)
(= t_5 6.0)
) (= (int-ode_y 4) 23.263871)
))
(push 1)
(assert (= dsqr_4 0.0))
(assert (= dsqrt_4 0.0))
(assert (= dy_4 1.0))
(check-sat)
(get-value (dsqr_5))
(get-value (sqr_5))
(get-value (t_5))
(get-value (t_6))
(get-value (dsqrt_5))
(get-value (sqrt_5))
(get-value (t_5))
(get-value (t_6))
(get-value (dy_5))
(get-value (y_5))
(get-value (t_5))
(get-value (t_6))
(assert (=> (and 
(= dsqr_5 0.0)
(= sqr_5 36.0)
(= t_5 6.0)
(= t_6 7.0)
) (= (int-ode_sqr 5) 49.000000)
))
(assert (=> (and 
(= dsqrt_5 0.0)
(= sqrt_5 2.44949)
(= t_5 6.0)
(= t_6 7.0)
) (= (int-ode_sqrt 5) 2.645752)
))
(assert (=> (and 
(= dy_5 0.0)
(= y_5 23.263871)
(= t_5 6.0)
(= t_6 7.0)
) (= (int-ode_y 5) 63.237766)
))
(push 1)
(assert (= dsqr_5 0.0))
(assert (= dsqrt_5 0.0))
(assert (= dy_5 0.0))
(check-sat)
(pop 1)
(assert (not (and 
(= dsqr_5 0.0)
(= sqr_5 36.0)
(= t_5 6.0)
(= t_6 7.0)
(= dsqrt_5 0.0)
(= sqrt_5 2.44949)
(= t_5 6.0)
(= t_6 7.0)
(= dy_5 0.0)
(= y_5 23.263871)
(= t_5 6.0)
(= t_6 7.0)
)))
(check-sat)
(get-value (dsqr_5))
(get-value (sqr_5))
(get-value (t_5))
(get-value (t_6))
(get-value (dsqrt_5))
(get-value (sqrt_5))
(get-value (t_5))
(get-value (t_6))
(get-value (dy_5))
(get-value (y_5))
(get-value (t_5))
(get-value (t_6))
(assert (=> (and 
(= dsqr_5 0.0)
(= sqr_5 36.0)
(= t_5 6.0)
(= t_6 7.0)
) (= (int-ode_sqr 5) 49.000000)
))
(assert (=> (and 
(= dsqrt_5 0.0)
(= sqrt_5 2.44949)
(= t_5 6.0)
(= t_6 7.0)
) (= (int-ode_sqrt 5) 2.645752)
))
(assert (=> (and 
(= dy_5 1.0)
(= y_5 23.263871)
(= t_5 6.0)
(= t_6 7.0)
) (= (int-ode_y 5) 23.418022)
))
(push 1)
(assert (= dsqr_5 0.0))
(assert (= dsqrt_5 0.0))
(assert (= dy_5 1.0))
(check-sat)
(get-value (dsqr_6))
(get-value (sqr_6))
(get-value (t_6))
(get-value (t_7))
(get-value (dsqrt_6))
(get-value (sqrt_6))
(get-value (t_6))
(get-value (t_7))
(get-value (dy_6))
(get-value (y_6))
(get-value (t_6))
(get-value (t_7))
(assert (=> (and 
(= dsqr_6 0.0)
(= sqr_6 49.0)
(= t_6 7.0)
(= t_7 8.0)
) (= (int-ode_sqr 6) 64.000000)
))
(assert (=> (and 
(= dsqrt_6 0.0)
(= sqrt_6 2.645752)
(= t_6 7.0)
(= t_7 8.0)
) (= (int-ode_sqrt 6) 2.828428)
))
(assert (=> (and 
(= dy_6 0.0)
(= y_6 23.418022)
(= t_6 7.0)
(= t_7 8.0)
) (= (int-ode_y 6) 63.656792)
))
(push 1)
(assert (= dsqr_6 0.0))
(assert (= dsqrt_6 0.0))
(assert (= dy_6 0.0))
(check-sat)
(get-value (dsqr_7))
(get-value (sqr_7))
(get-value (t_7))
(get-value (t_8))
(get-value (dsqrt_7))
(get-value (sqrt_7))
(get-value (t_7))
(get-value (t_8))
(get-value (dy_7))
(get-value (y_7))
(get-value (t_7))
(get-value (t_8))
(assert (=> (and 
(= dsqr_7 0.0)
(= sqr_7 64.0)
(= t_7 8.0)
(= t_8 9.0)
) (= (int-ode_sqr 7) 81.000000)
))
(assert (=> (and 
(= dsqrt_7 0.0)
(= sqrt_7 2.828428)
(= t_7 8.0)
(= t_8 9.0)
) (= (int-ode_sqrt 7) 3.000001)
))
(assert (=> (and 
(= dy_7 0.0)
(= y_7 63.656792)
(= t_7 8.0)
(= t_8 9.0)
) (= (int-ode_y 7) 173.037124)
))
(push 1)
(assert (= dsqr_7 0.0))
(assert (= dsqrt_7 0.0))
(assert (= dy_7 0.0))
(check-sat)
(pop 1)
(assert (not (and 
(= dsqr_7 0.0)
(= sqr_7 64.0)
(= t_7 8.0)
(= t_8 9.0)
(= dsqrt_7 0.0)
(= sqrt_7 2.828428)
(= t_7 8.0)
(= t_8 9.0)
(= dy_7 0.0)
(= y_7 63.656792)
(= t_7 8.0)
(= t_8 9.0)
)))
(check-sat)
(get-value (dsqr_7))
(get-value (sqr_7))
(get-value (t_7))
(get-value (t_8))
(get-value (dsqrt_7))
(get-value (sqrt_7))
(get-value (t_7))
(get-value (t_8))
(get-value (dy_7))
(get-value (y_7))
(get-value (t_7))
(get-value (t_8))
(assert (=> (and 
(= dsqr_7 0.0)
(= sqr_7 64.0)
(= t_7 8.0)
(= t_8 9.0)
) (= (int-ode_sqr 7) 81.000000)
))
(assert (=> (and 
(= dsqrt_7 0.0)
(= sqrt_7 2.828428)
(= t_7 8.0)
(= t_8 9.0)
) (= (int-ode_sqrt 7) 3.000001)
))
(assert (=> (and 
(= dy_7 1.0)
(= y_7 63.656792)
(= t_7 8.0)
(= t_8 9.0)
) (= (int-ode_y 7) 63.774575)
))
(push 1)
(assert (= dsqr_7 0.0))
(assert (= dsqrt_7 0.0))
(assert (= dy_7 1.0))
(check-sat)
(get-value (dsqr_8))
(get-value (sqr_8))
(get-value (t_8))
(get-value (t_9))
(get-value (dsqrt_8))
(get-value (sqrt_8))
(get-value (t_8))
(get-value (t_9))
(get-value (dy_8))
(get-value (y_8))
(get-value (t_8))
(get-value (t_9))
(assert (=> (and 
(= dsqr_8 0.0)
(= sqr_8 81.0)
(= t_8 9.0)
(= t_9 10.0)
) (= (int-ode_sqr 8) 100.000000)
))
(assert (=> (and 
(= dsqrt_8 0.0)
(= sqrt_8 3.000001)
(= t_8 9.0)
(= t_9 10.0)
) (= (int-ode_sqrt 8) 3.162279)
))
(assert (=> (and 
(= dy_8 0.0)
(= y_8 63.774575)
(= t_8 9.0)
(= t_9 10.0)
) (= (int-ode_y 8) 173.357292)
))
(push 1)
(assert (= dsqr_8 0.0))
(assert (= dsqrt_8 0.0))
(assert (= dy_8 0.0))
(check-sat)
(pop 1)
(assert (not (and 
(= dsqr_8 0.0)
(= sqr_8 81.0)
(= t_8 9.0)
(= t_9 10.0)
(= dsqrt_8 0.0)
(= sqrt_8 3.000001)
(= t_8 9.0)
(= t_9 10.0)
(= dy_8 0.0)
(= y_8 63.774575)
(= t_8 9.0)
(= t_9 10.0)
)))
(check-sat)
(get-value (dsqr_8))
(get-value (sqr_8))
(get-value (t_8))
(get-value (t_9))
(get-value (dsqrt_8))
(get-value (sqrt_8))
(get-value (t_8))
(get-value (t_9))
(get-value (dy_8))
(get-value (y_8))
(get-value (t_8))
(get-value (t_9))
(assert (=> (and 
(= dsqr_8 0.0)
(= sqr_8 81.0)
(= t_8 9.0)
(= t_9 10.0)
) (= (int-ode_sqr 8) 100.000000)
))
(assert (=> (and 
(= dsqrt_8 0.0)
(= sqrt_8 3.000001)
(= t_8 9.0)
(= t_9 10.0)
) (= (int-ode_sqrt 8) 3.162279)
))
(assert (=> (and 
(= dy_8 1.0)
(= y_8 63.774575)
(= t_8 9.0)
(= t_9 10.0)
) (= (int-ode_y 8) 63.879936)
))
(push 1)
(assert (= dsqr_8 0.0))
(assert (= dsqrt_8 0.0))
(assert (= dy_8 1.0))
(check-sat)
(get-value (sqr_0))
(get-value (sqr_1))
(get-value (sqr_2))
(get-value (sqr_3))
(get-value (sqr_4))
(get-value (sqr_5))
(get-value (sqr_6))
(get-value (sqr_7))
(get-value (sqr_8))
(get-value (dsqr_0))
(get-value (dsqr_1))
(get-value (dsqr_2))
(get-value (dsqr_3))
(get-value (dsqr_4))
(get-value (dsqr_5))
(get-value (dsqr_6))
(get-value (dsqr_7))
(get-value (dsqr_8))
(get-value (sqrt_0))
(get-value (sqrt_1))
(get-value (sqrt_2))
(get-value (sqrt_3))
(get-value (sqrt_4))
(get-value (sqrt_5))
(get-value (sqrt_6))
(get-value (sqrt_7))
(get-value (sqrt_8))
(get-value (dsqrt_0))
(get-value (dsqrt_1))
(get-value (dsqrt_2))
(get-value (dsqrt_3))
(get-value (dsqrt_4))
(get-value (dsqrt_5))
(get-value (dsqrt_6))
(get-value (dsqrt_7))
(get-value (dsqrt_8))
(get-value (y_0))
(get-value (y_1))
(get-value (y_2))
(get-value (y_3))
(get-value (y_4))
(get-value (y_5))
(get-value (y_6))
(get-value (y_7))
(get-value (y_8))
(get-value (dy_0))
(get-value (dy_1))
(get-value (dy_2))
(get-value (dy_3))
(get-value (dy_4))
(get-value (dy_5))
(get-value (dy_6))
(get-value (dy_7))
(get-value (dy_8))
(exit)
